
Welcome to IBM(R) ILOG(R) CPLEX(R) Interactive Optimizer 22.1.1.0
  with Simplex, Mixed Integer & Barrier Optimizers
5725-A06 5725-A29 5724-Y48 5724-Y49 5724-Y54 5724-Y55 5655-Y21
Copyright IBM Corp. 1988, 2022.  All Rights Reserved.

Type 'help' for a list of available commands.
Type 'help' followed by a command name for more
information on commands.

CPLEX> Selected objective sense:  MINIMIZE
Selected objective  name:  00000000
Selected RHS        name:  RHS1
Selected bound      name:  BOUND
Problem 'ee.mps' read.
Read time = 0.02 sec. (3.17 ticks)
CPLEX> New value for time limit in seconds: 7200
CPLEX> New value for parallel optimization mode: -1
CPLEX> New value for default parallel thread count: 40
CPLEX> New value for mixed integer optimality gap tolerance: 1e-13
CPLEX> Version identifier: 22.1.1.0 | 2022-11-28 | 9160aff4d
CPXPARAM_Threads                                 40
CPXPARAM_Parallel                                -1
CPXPARAM_TimeLimit                               7200
CPXPARAM_MIP_Tolerances_MIPGap                   1e-13
Found incumbent of value 0.000000 after 0.00 sec. (0.31 ticks)
Tried aggregator 2 times.
MIP Presolve eliminated 184 rows and 2745 columns.
MIP Presolve modified 6090 coefficients.
Aggregator did 713 substitutions.
Reduced MIP has 3636 rows, 7840 columns, and 28954 nonzeros.
Reduced MIP has 7840 binaries, 0 generals, 0 SOSs, and 0 indicators.
Presolve time = 0.07 sec. (69.13 ticks)
Probing time = 0.03 sec. (5.33 ticks)
Tried aggregator 1 time.
Detecting symmetries...
Reduced MIP has 3636 rows, 7840 columns, and 28954 nonzeros.
Reduced MIP has 7840 binaries, 0 generals, 0 SOSs, and 0 indicators.
Presolve time = 0.03 sec. (22.09 ticks)
Probing time = 0.02 sec. (5.12 ticks)
Clique table members: 18788.
MIP emphasis: balance optimality and feasibility.
MIP search method: dynamic search.
Parallel mode: opportunistic, using up to 40 threads.
Root relaxation solution time = 0.17 sec. (148.56 ticks)

        Nodes                                         Cuts/
   Node  Left     Objective  IInf  Best Integer    Best Bound    ItCnt     Gap

*     0+    0                            0.0000  -1.54000e+13              --- 
*     0+    0                      -6.99000e+12  -1.54000e+13           120.31%
*     0+    0                      -8.19000e+12  -1.54000e+13            88.03%
      0     0  -1.53900e+13   116  -8.19000e+12  -1.53900e+13     2907   87.91%
*     0+    0                      -1.53900e+13  -1.53900e+13             0.00%
      0     0  -1.53900e+13   225  -1.53900e+13      Cuts: 94     3533    0.00%
*     0+    0                      -1.53900e+13  -1.53900e+13             0.00%
      0     0  -1.53900e+13   183  -1.53900e+13     Cuts: 107     4054    0.00%
      0     0  -1.53900e+13   245  -1.53900e+13      Cuts: 65     4186    0.00%
*     0+    0                      -1.53900e+13  -1.53900e+13             0.00%
      0     0  -1.00000e+75     0  -1.53900e+13  -1.53900e+13     4186    0.00%
*     0+    0                      -1.53900e+13  -1.53900e+13             0.00%
*     0+    0                      -1.53900e+13  -1.53900e+13             0.00%
      0    29        cutoff        -1.53900e+13  -1.53900e+13    14365    0.00%
Elapsed time = 2.69 sec. (1322.28 ticks, tree = 0.02 MB, solutions = 8)
*     9+   39                      -1.53900e+13  -1.53900e+13             0.00%
    185    81  -1.53900e+13   148  -1.53900e+13  -1.53900e+13    43380    0.00%
    610    88  -1.53900e+13    33  -1.53900e+13  -1.53900e+13    39644    0.00%
    858   211  -1.53900e+13   163  -1.53900e+13  -1.53900e+13   147179    0.00%
   1007   215  -1.53900e+13   304  -1.53900e+13  -1.53900e+13   161879    0.00%
   1121   230    infeasible        -1.53900e+13  -1.53900e+13   189951    0.00%
   1267   154        cutoff        -1.53900e+13  -1.53900e+13   274850    0.00%
   1490   198  -1.53900e+13   297  -1.53900e+13  -1.53900e+13   242772    0.00%
   1824   157        cutoff        -1.53900e+13  -1.53900e+13   273719    0.00%
   2153   167        cutoff        -1.53900e+13  -1.53900e+13   267588    0.00%
   3082    38        cutoff        -1.53900e+13  -1.53900e+13   426650    0.00%
Elapsed time = 7.44 sec. (4434.02 ticks, tree = 0.22 MB, solutions = 11)

GUB cover cuts applied:  6
Clique cuts applied:  27
Cover cuts applied:  970
Flow cuts applied:  4
Mixed integer rounding cuts applied:  20
Zero-half cuts applied:  14
Lift and project cuts applied:  6
Gomory fractional cuts applied:  24

Root node processing (before b&c):
  Real time             =    1.56 sec. (1301.74 ticks)
Parallel b&c, 40 threads:
  Real time             =    5.94 sec. (3733.01 ticks)
  Sync time (average)   =    1.86 sec.
  Wait time (average)   =    0.00 sec.
                          ------------
Total (root+branch&cut) =    7.50 sec. (5034.74 ticks)

Solution pool: 11 solutions saved.

MIP - Integer optimal solution:  Objective = -1.5389998889e+13
Solution time =    7.64 sec.  Iterations = 548733  Nodes = 3275
Deterministic time = 5034.78 ticks  (659.32 ticks/sec)

CPLEX> Solution 'p12' written to file 'ee.sol'.
CPLEX> 